
Gurobi 6.0.4 (win64) logging started 06/20/15 12:18:03

Read LP format model from file C:\MT\repository\VRPTWMS\instances\mip\fuel\N10-C_DV100-C_SV30_F6_0_No_1.lp
Reading time = 0.01 seconds
(null): 621 rows, 298 columns, 2643 nonzeros
Optimize a model with 621 rows, 298 columns and 2643 nonzeros
Model has 1100 quadratic constraints
Coefficient statistics:
  Matrix range    [1e+00, 1e+06]
  Objective range [2e+04, 1e+07]
  Bounds range    [1e+00, 1e+06]
  RHS range       [1e+00, 1e+06]
Presolve removed 38 rows and 13 columns
Presolve time: 0.13s
Presolved: 2715 rows, 1397 columns, 13661 nonzeros
Variable types: 1020 continuous, 377 integer (324 binary)
Found heuristic solution: objective 1.035386e+08

Root relaxation: objective 1.084414e+06, 107 iterations, 0.00 seconds

    Nodes    |    Current Node    |     Objective Bounds      |     Work
 Expl Unexpl |  Obj  Depth IntInf | Incumbent    BestBd   Gap | It/Node Time

     0     0 1084414.36    0   26 1.0354e+08 1084414.36  99.0%     -    0s
H    0     0                    3.191470e+07 1084414.36  96.6%     -    0s
     0     0 1311345.82    0   42 3.1915e+07 1311345.82  95.9%     -    0s
     0     0 1376833.33    0   39 3.1915e+07 1376833.33  95.7%     -    0s
     0     0 1384024.86    0   53 3.1915e+07 1384024.86  95.7%     -    0s
     0     0 1391885.01    0   56 3.1915e+07 1391885.01  95.6%     -    0s
     0     0 1397993.81    0   53 3.1915e+07 1397993.81  95.6%     -    0s
     0     0 1397993.81    0   54 3.1915e+07 1397993.81  95.6%     -    0s
     0     0 1398947.26    0   50 3.1915e+07 1398947.26  95.6%     -    0s
     0     0 1398947.26    0   55 3.1915e+07 1398947.26  95.6%     -    0s
     0     0 1398947.26    0   52 3.1915e+07 1398947.26  95.6%     -    0s
     0     0 1398947.26    0   49 3.1915e+07 1398947.26  95.6%     -    0s
     0     0 1398947.26    0   41 3.1915e+07 1398947.26  95.6%     -    0s
H    0     0                    3.168340e+07 1398947.26  95.6%     -    0s
     0     0 1398947.26    0   44 3.1683e+07 1398947.26  95.6%     -    0s
     0     0 1398947.26    0   39 3.1683e+07 1398947.26  95.6%     -    0s
     0     0 1398947.26    0   45 3.1683e+07 1398947.26  95.6%     -    0s
     0     0 1398947.26    0   45 3.1683e+07 1398947.26  95.6%     -    0s
     0     2 1398947.26    0   45 3.1683e+07 1398947.26  95.6%     -    0s
H  136   101                    3.158990e+07 1444788.70  95.4%  23.4    1s
H  230   178                    3.154070e+07 1457083.73  95.4%  23.9    1s
   919   607 1583631.74   28   37 3.1541e+07 1509818.78  95.2%  35.4    5s
H 2356   754                    2.144600e+07 1617611.12  92.5%  50.3    9s
  2364   760     cutoff   51      2.1446e+07 1618375.50  92.5%  50.3   10s
  3630  1117 infeasible   31      2.1446e+07 1728055.70  91.9%  48.1   15s
  5217  1495 infeasible   30      2.1446e+07 1855798.86  91.3%  47.6   20s
  6477  1655 infeasible   34      2.1446e+07 1922885.12  91.0%  48.5   25s
  7708  1745 infeasible   35      2.1446e+07 1992657.85  90.7%  50.6   30s
  8964  1821 infeasible   31      2.1446e+07 2075730.66  90.3%  52.3   35s
 10222  1870 infeasible   42      2.1446e+07 2148739.61  90.0%  53.9   40s
 11392  1942 1.0235e+07   39   51 2.1446e+07 2232296.16  89.6%  55.5   45s
 12541  1979     cutoff   47      2.1446e+07 2328911.41  89.1%  57.2   50s
 13647  1929 2532513.86   39   75 2.1446e+07 2434834.24  88.6%  58.4   55s
 15026  1905 1.2275e+07   45   59 2.1446e+07 2615234.71  87.8%  59.5   61s
 15873  1843 infeasible   46      2.1446e+07 2791397.67  87.0%  60.0   65s
 17333  1714 3812477.14   43   68 2.1446e+07 3489748.42  83.7%  60.6   70s
 19113  1538 1.1761e+07   28   21 2.1446e+07 7888674.10  63.2%  60.5   75s
 20800  1315 1.2130e+07   32   19 2.1446e+07 1.1455e+07  46.6%  60.0   80s
 22617  1062 1.2452e+07   55   42 2.1446e+07 1.1810e+07  44.9%  58.7   85s
 24249   727 1.2172e+07   43   39 2.1446e+07 1.2106e+07  43.5%  58.0   90s
 25484   447 1.2422e+07   46   52 2.1446e+07 1.2388e+07  42.2%  58.0   95s

Cutting planes:
  Learned: 2
  Gomory: 5
  Cover: 5
  Implied bound: 2
  Clique: 2
  MIR: 3
  Flow cover: 1
  GUB cover: 3
  Zero half: 7

Explored 26776 nodes (1541010 simplex iterations) in 98.20 seconds
Thread count was 2 (of 4 available processors)

Optimal solution found (tolerance 1.00e-04)
Best objective 2.144600000000e+07, best bound 2.144600000000e+07, gap 0.0%
k_c1	170000.0
k_c10	909998.0
k_c2	969998.0
k_c3	60001.0
k_c4	40001.0
k_c5	949999.0
k_c6	869997.0
k_c7	80002.0
k_c8	1000000.0
k_c9	1000000.0
k_dN	-0.0
o_1	-0.0
o_10	-0.0
o_2	-0.0
o_3	-0.0
o_4	-0.0
o_5	-0.0
o_6	-0.0
o_7	-0.0
o_8	-0.0
o_9	-0.0
p_1	0.0
p_10	0.0
p_2	0.0
p_3	0.0
p_4	-0.0
p_5	-0.0
p_6	0.0
p_7	0.0
p_8	-0.0
p_9	0.0
phi_c1	18384.0
phi_c10	33635.0
phi_c2	24406.0
phi_c3	12992.0
phi_c4	3345.0
phi_c5	42734.0
phi_c6	26911.0
phi_c7	18017.0
phi_c8	49617.0
phi_c9	47557.0
phi_dN	-0.0
pi_c1	240000.0
pi_c10	240000.0
pi_c2	240000.0
pi_c3	240000.0
pi_c4	60000.0
pi_c5	300000.0
pi_c6	240000.0
pi_c7	240000.0
pi_c8	240000.0
pi_c9	300000.0
pi_dN	-0.0
tauD_c1	650000.0
tauD_c10	345047.0
tauD_c2	450000.0
tauD_c3	800000.0
tauD_c4	600000.0
tauD_c5	124526.0
tauD_c6	460173.0
tauD_c7	515174.0
tauD_c8	334474.0
tauD_c9	46500.0
tauD_d0	-0.0
tauD_dN	1000000.0
tauS_c1	843525.0
tauS_c10	166525.0
tauS_c2	441000.0
tauS_c3	432850.0
tauS_c4	202400.0
tauS_c5	876275.0
tauS_c6	420375.0
tauS_c7	417375.0
tauS_c8	152000.0
tauS_c9	873500.0
tauS_d0	-0.0
tauS_dN	999999.0
x_c10_c6	1.0
x_c1_c3	1.0
x_c2_c1	1.0
x_c3_dN	1.0
x_c4_dN	1.0
x_c5_c10	1.0
x_c6_c7	1.0
x_c7_c4	1.0
x_c8_c2	1.0
x_c9_c5	1.0
x_d0_c8	1.0
x_d0_c9	1.0
